\ENCODING=ISO-8859-1
\Problem name: 

Minimize
 obj: x1 + x2 + x3 + x4 + x5 + x6 + x7 + 2 x11 + 2 x12
Subject To
 c1: - x8 - x9 + x10  = -1
 c2: x1 + x6 + x8  = 4
 c3: x2 + x4 + x7 + x9  = 1
 c4: x3 + x5 - x10  = 1
 c5: - x6 - x7 - x11 + x12  = -2
 c6: - x4 - x5 + x11  = -2
 c7: - x1 - x2 - x3 - x12  = -1
 c8: 2 x11 + 5 x12  = 2
 c9: x1 + x3 + x6  = 3
Bounds
 0 <= x1 <= 50
 0 <= x2 <= 50
 0 <= x3 <= 50
 0 <= x4 <= 50
 0 <= x5 <= 50
 0 <= x6 <= 50
 0 <= x7 <= 50
 0 <= x8 <= 50
 0 <= x9 <= 50
 0 <= x10 <= 50
 0 <= x11 <= 50
 0 <= x12 <= 50
End
